--- Job allocate_miro3.gms Start 07/07/20 16:16:51 31.1.0 r55b6ce3 WEX-WEI x86 64bit/MS Windows
--- Applying:
    E:\31.1\gmsprmNT.txt
--- GAMS Parameters defined
    Input C:\Users\hasee\Documents\GitHub\GAMS-MIRO\Allocate\allocate_miro3.gms
    ScrDir C:\Users\hasee\Documents\GitHub\GAMS-MIRO\Allocate\225a\
    SysDir E:\31.1\
    CurDir C:\Users\hasee\Documents\GitHub\GAMS-MIRO\Allocate\
    LogOption 3
    Trace C:\Users\hasee\Documents\GitHub\GAMS-MIRO\Allocate\_sys_trace_allocate_miro3.trc
    InputDir1 C:\Users\hasee\Documents\GitHub\GAMS-MIRO\Allocate\
    TraceOpt 3
    ExecMode 0
    LstTitleLeftAligned 1
    IDCGDXInput _miro_gdxin_.gdx
    IDCGDXOutput _miro_gdxout_.gdx
GAMS 31.1.0   Copyright (C) 1987-2020 GAMS Development. All rights reserved
Licensee: Michael Ferris Research Group - Eval           G191008/0001AS-GEN
          UW-Madison Computer Sciences Dept.                         DCE244
          E:\31.1\gamslice.txt
          Evaluation license: Not for commercial or production use
--- Starting compilation
--- allocate_miro3.gms(17) 3 Mb
--- GDXin=C:\Users\hasee\Documents\GitHub\GAMS-MIRO\Allocate\_miro_gdxin_.gdx
--- allocate_miro3.gms(59) 3 Mb
--- GDXin=C:\Users\hasee\Documents\GitHub\GAMS-MIRO\Allocate\_miro_gdxin_.gdx
--- allocate_miro3.gms(75) 3 Mb
--- GDXin=C:\Users\hasee\Documents\GitHub\GAMS-MIRO\Allocate\_miro_gdxin_.gdx
--- allocate_miro3.gms(328) 3 Mb
--- Starting execution: elapsed 0:00:00.010
--- allocate_miro3.gms(282) 4 Mb
--- Generating MIP model vivak
--- allocate_miro3.gms(283) 4 Mb
---   206 rows  356 columns  961 non-zeroes
---   85 discrete-columns
--- Executing CPLEX: elapsed 0:00:00.061

IBM ILOG CPLEX   31.1.0 r55b6ce3 Released May 01, 2020 WEI x86 64bit/MS Window
--- GAMS/Cplex licensed for continuous and discrete problems.
Cplex 12.10.0.0

Reading data...
Starting Cplex...
Space for names approximately 0.01 Mb
Use option 'names no' to turn use of names off
Version identifier: 12.10.0.0 | 2019-11-26 | 843d4de2ae
CPXPARAM_Advance                                 0
CPXPARAM_Threads                                 1
CPXPARAM_Parallel                                1
CPXPARAM_MIP_Display                             4
CPXPARAM_Simplex_Limits_Iterations               2000000000
CPXPARAM_TimeLimit                               1000
CPXPARAM_Tune_TimeLimit                          200
CPXPARAM_MIP_Tolerances_AbsMIPGap                0
CPXPARAM_MIP_Tolerances_MIPGap                   0.001
CPXPARAM_WorkDir                                 "C:\Users\hasee\Documents\GitHub\GAMS-MIRO\Allocate\225a\"
Found incumbent of value 0.000000 after 0.00 sec. (0.01 ticks)
Tried aggregator 2 times.
MIP Presolve eliminated 52 rows and 91 columns.
MIP Presolve modified 14 coefficients.
Aggregator did 15 substitutions.
Reduced MIP has 139 rows, 250 columns, and 617 nonzeros.
Reduced MIP has 15 binaries, 70 generals, 0 SOSs, and 0 indicators.
Presolve time = 0.00 sec. (0.59 ticks)
Probing time = 0.00 sec. (0.07 ticks)
Tried aggregator 1 time.
Detecting symmetries...
MIP Presolve eliminated 6 rows and 27 columns.
Reduced MIP has 133 rows, 223 columns, and 563 nonzeros.
Reduced MIP has 15 binaries, 70 generals, 0 SOSs, and 0 indicators.
Presolve time = 0.00 sec. (0.39 ticks)
Probing time = 0.00 sec. (0.05 ticks)
Clique table members: 5.
MIP emphasis: balance optimality and feasibility.
MIP search method: dynamic search.
Parallel mode: none, using 1 thread.
Tried aggregator 1 time.
Aggregator did 80 substitutions.
Reduced LP has 53 rows, 143 columns, and 403 nonzeros.
Presolve time = 0.00 sec. (0.13 ticks)
Initializing dual steep norms . . .

Iteration log . . .
Iteration:     1   Dual objective     =        107904.465709
Iteration:    62   Dual objective     =         14822.991582
Initializing dual steep norms . . .
Root relaxation solution time = 0.02 sec. (0.80 ticks)

        Nodes                                         Cuts/
   Node  Left     Objective  IInf  Best Integer    Best Bound    ItCnt     Gap

*     0+    0                            0.0000   123233.3223              --- 
Found incumbent of value 0.000000 after 0.02 sec. (2.16 ticks)
      0     0    14344.9080    18        0.0000    14344.9080      116     --- 
*     0+    0                         8945.3446    14344.9080            60.36%
Found incumbent of value 8945.344573 after 0.02 sec. (2.85 ticks)
      0     0    14099.2848    18     8945.3446      Cuts: 64      176   57.62%
      0     0    13732.6904    18     8945.3446      Cuts: 57      229   53.52%
      0     0    13550.9784    18     8945.3446      Cuts: 49      267   51.49%
      0     0    13389.8311    18     8945.3446      Cuts: 45      300   49.68%
      0     0    13389.8311    18     8945.3446      Cuts: 29      313   49.68%
      0     0    13389.8311    18     8945.3446      Cuts: 22      323   49.68%
*     0+    0                         9405.2631    13389.8311            42.37%
Found incumbent of value 9405.263107 after 0.06 sec. (19.03 ticks)
*     0+    0                         9444.2631    13389.8311            41.78%
Found incumbent of value 9444.263107 after 0.08 sec. (23.92 ticks)
      0     0        cutoff           9444.2631    13389.8311      323   41.78%
Detecting symmetries...
      0     2    13389.8311    29     9444.2631    13379.1821      323   41.66%
Elapsed time = 0.08 sec. (24.22 ticks, tree = 0.01 MB, solutions = 4)
*    10+   10                        11640.3537    13372.4238            14.88%
Found incumbent of value 11640.353749 after 0.08 sec. (28.25 ticks)
*    10+   10                        11789.1794    13372.4238            13.43%
Found incumbent of value 11789.179378 after 0.09 sec. (28.71 ticks)
*    10+   10                        12338.3730    13372.4238             8.38%
Found incumbent of value 12338.372965 after 0.09 sec. (29.79 ticks)
*    60+   37                        12355.7370    13243.3493             7.18%
                                                 Impl Bds: 14                  
Found incumbent of value 12355.737041 after 0.11 sec. (42.34 ticks)
*    69    34      integral     0    12468.3917    13243.3493     1098    6.22%
Found incumbent of value 12468.391734 after 0.11 sec. (43.33 ticks)
*   160+   75                        12483.0804    13106.1335             4.99%
                                                     Cuts: 26                  
Found incumbent of value 12483.080359 after 0.17 sec. (72.15 ticks)
*   180+   76                        12551.9044    13099.2760             4.36%
Found incumbent of value 12551.904375 after 0.17 sec. (75.61 ticks)
*   260+   94                        12597.2427    13016.3956             3.33%
                                                     Cuts: 12                  
Found incumbent of value 12597.242746 after 0.20 sec. (97.19 ticks)
*   294   109      integral     0    12626.6660    13016.3956     3605    3.09%
Found incumbent of value 12626.665950 after 0.22 sec. (103.75 ticks)
*   340   126      integral     0    12659.2201    13012.6647     3981    2.79%
                                                   MIRcuts: 2                  
Found incumbent of value 12659.220096 after 0.24 sec. (114.89 ticks)
*   386   144      integral     0    12662.3853    13000.7045     4431    2.67%
                                                      Cuts: 3                  
Found incumbent of value 12662.385309 after 0.25 sec. (124.22 ticks)

Implied bound cuts applied:  62
Flow cuts applied:  3
Mixed integer rounding cuts applied:  49
Lift and project cuts applied:  2
Gomory fractional cuts applied:  1

Root node processing (before b&c):
  Real time             =    0.08 sec. (24.25 ticks)
Sequential b&c:
  Real time             =    0.36 sec. (192.39 ticks)
                          ------------
Total (root+branch&cut) =    0.44 sec. (216.64 ticks)
MIP status(102): integer optimal, tolerance
Cplex Time: 0.44sec (det. 216.64 ticks)
Fixing integer variables, and solving final LP...
Version identifier: 12.10.0.0 | 2019-11-26 | 843d4de2ae
CPXPARAM_Advance                                 2
CPXPARAM_Threads                                 1
CPXPARAM_Parallel                                1
CPXPARAM_MIP_Display                             4
CPXPARAM_Simplex_Limits_Iterations               2000000000
CPXPARAM_TimeLimit                               1000
CPXPARAM_Tune_TimeLimit                          200
CPXPARAM_MIP_Tolerances_AbsMIPGap                0
CPXPARAM_MIP_Tolerances_MIPGap                   0.001
CPXPARAM_WorkDir                                 "C:\Users\hasee\Documents\GitHub\GAMS-MIRO\Allocate\225a\"
Tried aggregator 1 time.
LP Presolve eliminated 169 rows and 284 columns.
Aggregator did 9 substitutions.
Reduced LP has 28 rows, 63 columns, and 110 nonzeros.
Presolve time = 0.00 sec. (0.20 ticks)
Initializing dual steep norms . . .

Iteration log . . .
Iteration:     1   Dual objective     =         13038.385309
Fixed MIP status(1): optimal
Cplex Time: 0.00sec (det. 0.36 ticks)

Solution satisfies tolerances.

MIP Solution:        12662.385309    (8397 iterations, 908 nodes)
Final Solve:         12662.385309    (32 iterations)

Best possible:       12673.857683
Absolute gap:           11.472375
Relative gap:            0.000905

--- Restarting execution
--- allocate_miro3.gms(283) 2 Mb
--- Reading solution for model vivak
--- allocate_miro3.gms(328) 3 Mb
--- GDX File C:\Users\hasee\Documents\GitHub\GAMS-MIRO\Allocate\_miro_gdxout_.gdx
*** Status: Normal completion
--- Job allocate_miro3.gms Stop 07/07/20 16:16:52 elapsed 0:00:00.654
